100
1000
330
318
353
307
392
379
344
362
306
302
343
379
341
385
341
335
350
315
386
367
334
387
340
341
333
372
340
388
358
318
310
378
337
340
320
393
381
329
360
315
302
321
382
374
300
302
394
330
337
357
369
356
387
365
354
318
390
377
337
390
312
389
397
328
327
369
347
345
366
334
343
331
325
388
361
318
328
317
352
316
381
321
303
391
314
383
347
374
377
340
378
342
392
302
365
368
343
338
317
361
